c NeuroCodeBench 2.0 CNF formula with verdict Unsat
p cnf 8 16
-1 -7 -6 -4 2 -3 -8 0
-1 -7 -6 -4 2 3 0
1 -5 -3 8 -6 0
-1 7 3 -6 4 0
1 5 0
-1 -7 -6 -4 -2 0
1 -5 -3 8 6 0
-1 7 -3 0
-1 -7 6 8 0
-1 7 3 -6 -4 0
1 -5 3 0
-1 -7 6 -8 0
1 -5 -3 -8 0
-1 7 3 6 0
-1 -7 -6 4 0
-1 -7 -6 -4 2 -3 8 0
